p wcnf 127 152 153 
1 -24 77 0 
1 -106 45 0 
1 116 -18 0 
1 -100 73 0 
1 123 104 0 
1 -108 -35 0 
1 68 5 0 
1 -110 61 0 
1 112 114 0 
1 32 -6 0 
1 -82 112 0 
1 51 121 0 
1 97 79 0 
1 -94 11 0 
1 -39 -35 0 
1 -97 -57 0 
1 102 -124 0 
1 2 -77 0 
1 -112 -20 0 
1 95 -115 0 
1 -15 20 0 
1 41 30 0 
1 -44 77 0 
1 117 86 0 
1 24 -32 0 
1 -114 113 0 
1 52 37 0 
1 77 -70 0 
1 31 -52 0 
1 62 -21 0 
1 -95 81 0 
1 -21 -11 0 
1 -20 -10 0 
1 -113 -127 0 
1 126 41 0 
1 103 46 0 
1 97 114 0 
1 -25 -124 0 
1 -28 22 0 
1 -102 80 0 
1 46 6 0 
1 -61 49 0 
1 -40 121 0 
1 -79 12 0 
1 -88 86 0 
1 52 -87 0 
1 20 63 0 
1 67 25 0 
1 -30 124 0 
1 49 86 0 
1 101 125 0 
1 2 79 0 
1 47 -63 0 
1 94 74 0 
1 -80 -18 0 
1 -11 -16 0 
1 -12 -3 0 
1 66 -88 0 
1 -2 40 0 
1 -8 -112 0 
1 126 65 0 
1 36 -17 0 
1 32 76 0 
1 31 -10 0 
1 -43 91 0 
1 5 98 0 
1 120 10 0 
1 -64 18 0 
1 117 -4 0 
1 45 10 0 
1 -82 -89 0 
1 112 68 0 
1 -99 -61 0 
1 -105 67 0 
1 126 78 0 
1 -107 56 0 
1 -92 108 0 
1 -33 79 0 
1 101 41 0 
1 116 20 0 
1 21 -70 0 
1 -53 69 0 
1 -9 -44 0 
1 -17 -27 0 
1 123 45 0 
1 9 112 0 
1 -117 -65 0 
1 -13 105 0 
1 -111 70 0 
1 -114 11 0 
1 -121 -46 0 
1 61 -103 0 
1 -38 -127 0 
1 -57 -44 0 
1 75 -48 0 
1 101 -16 0 
1 -56 15 0 
1 18 -53 0 
1 -86 117 0 
1 121 -77 0 
1 -112 71 0 
1 -26 103 0 
1 -76 38 0 
1 127 -59 0 
1 -120 7 0 
1 29 -94 0 
1 -85 59 0 
1 1 94 0 
1 -48 -92 0 
1 50 33 0 
1 -23 123 0 
1 -39 -67 0 
1 53 15 0 
1 21 -3 0 
1 -65 -120 0 
1 91 -67 0 
1 -112 85 0 
1 68 -109 0 
1 64 -19 0 
1 -1 -127 0 
1 113 17 0 
1 -56 58 0 
1 -16 22 0 
1 -99 35 0 
1 -113 55 0 
1 19 30 0 
1 48 -118 0 
1 85 103 0 
1 -65 -17 0 
1 41 -21 0 
1 -6 -109 0 
1 110 -107 0 
1 -113 -120 0 
1 -62 16 0 
1 -36 73 0 
1 -31 59 0 
1 -57 88 0 
1 -2 -36 0 
1 -75 42 0 
1 86 -6 0 
1 115 51 0 
1 29 -86 0 
1 -92 -109 0 
1 88 -107 0 
1 -122 72 0 
1 -122 87 0 
1 41 61 0 
1 -57 -31 0 
1 -92 -94 0 
1 -115 -38 0 
1 -53 -114 0 
1 60 -112 0 
